21
6
3 20 18 19 8 15 6 10 14 7 11 0 2 17
15 10 6 1 18 0 11 2 14 9 13 20
9 16 10 19 12 20 11 0
4 12 9 14 18 11 1 13 8 17 6 15 5 10 7 19 3 16 2 20 0
14 20 4 12 19 0 16 10 3 9 18 1 17 7
2 14 16 0 6 11 13 12 1 20 19 7 15 8 18 9 10 5 4 17 3
